0 86 87
1 448 436
2 643 181
3 167 584
4 141 795
5 173 506
6 118 273
7 349 263
8 115 517
9 176 153
10 126 273
11 318 219
12 882 377
13 168 323
14 41 462
15 476 5
16 261 4
17 96 334
18 85 196
19 492 252
20 548 53
21 150 39
22 26 375
23 262 20
24 10 185
25 29 183